c nIsolatedPIs 0
c maxPI 32
p cnf 98 199
c gate 33 -9 25 0
-9 -33 0
25 -33 0
9 -25 33 0
c gate 34 8 24 0
8 -34 0
24 -34 0
-8 -24 34 0
c gate 35 -8 -24 0
-8 -35 0
-24 -35 0
8 24 35 0
c gate 36 -34 -35 0
-34 -36 0
-35 -36 0
34 35 36 0
c gate 37 -7 23 0
-7 -37 0
23 -37 0
7 -23 37 0
c gate 38 6 -22 0
6 -38 0
-22 -38 0
-6 22 38 0
c gate 39 7 -23 0
7 -39 0
-23 -39 0
-7 23 39 0
c gate 40 -38 -39 0
-38 -40 0
-39 -40 0
38 39 40 0
c gate 41 -2 18 0
-2 -41 0
18 -41 0
2 -18 41 0
c gate 42 -1 17 0
-1 -42 0
17 -42 0
1 -17 42 0
c gate 43 -41 -42 0
-41 -43 0
-42 -43 0
41 42 43 0
c gate 44 2 -18 0
2 -44 0
-18 -44 0
-2 18 44 0
c gate 45 3 -19 0
3 -45 0
-19 -45 0
-3 19 45 0
c gate 46 -44 -45 0
-44 -46 0
-45 -46 0
44 45 46 0
c gate 47 -43 46 0
-43 -47 0
46 -47 0
43 -46 47 0
c gate 48 -4 20 0
-4 -48 0
20 -48 0
4 -20 48 0
c gate 49 -3 19 0
-3 -49 0
19 -49 0
3 -19 49 0
c gate 50 -48 -49 0
-48 -50 0
-49 -50 0
48 49 50 0
c gate 51 -47 50 0
-47 -51 0
50 -51 0
47 -50 51 0
c gate 52 5 -21 0
5 -52 0
-21 -52 0
-5 21 52 0
c gate 53 4 -20 0
4 -53 0
-20 -53 0
-4 20 53 0
c gate 54 -52 -53 0
-52 -54 0
-53 -54 0
52 53 54 0
c gate 55 -51 54 0
-51 -55 0
54 -55 0
51 -54 55 0
c gate 56 -6 22 0
-6 -56 0
22 -56 0
6 -22 56 0
c gate 57 -38 -56 0
-38 -57 0
-56 -57 0
38 56 57 0
c gate 58 -5 21 0
-5 -58 0
21 -58 0
5 -21 58 0
c gate 59 57 -58 0
57 -59 0
-58 -59 0
-57 58 59 0
c gate 60 -55 59 0
-55 -60 0
59 -60 0
55 -59 60 0
c gate 61 40 -60 0
40 -61 0
-60 -61 0
-40 60 61 0
c gate 62 -37 -61 0
-37 -62 0
-61 -62 0
37 61 62 0
c gate 63 -36 62 0
-36 -63 0
62 -63 0
36 -62 63 0
c gate 64 -9 -25 0
-9 -64 0
-25 -64 0
9 25 64 0
c gate 65 9 25 0
9 -65 0
25 -65 0
-9 -25 65 0
c gate 66 -64 -65 0
-64 -66 0
-65 -66 0
64 65 66 0
c gate 67 8 -24 0
8 -67 0
-24 -67 0
-8 24 67 0
c gate 68 -66 -67 0
-66 -68 0
-67 -68 0
66 67 68 0
c gate 69 -63 68 0
-63 -69 0
68 -69 0
63 -68 69 0
c gate 70 -33 -69 0
-33 -70 0
-69 -70 0
33 69 70 0
c gate 71 -10 26 0
-10 -71 0
26 -71 0
10 -26 71 0
c gate 72 70 -71 0
70 -72 0
-71 -72 0
-70 71 72 0
c gate 73 -11 -27 0
-11 -73 0
-27 -73 0
11 27 73 0
c gate 74 11 27 0
11 -74 0
27 -74 0
-11 -27 74 0
c gate 75 -73 -74 0
-73 -75 0
-74 -75 0
73 74 75 0
c gate 76 10 -26 0
10 -76 0
-26 -76 0
-10 26 76 0
c gate 77 -75 -76 0
-75 -77 0
-76 -77 0
75 76 77 0
c gate 78 -72 77 0
-72 -78 0
77 -78 0
72 -77 78 0
c gate 79 12 28 0
12 -79 0
28 -79 0
-12 -28 79 0
c gate 80 -12 -28 0
-12 -80 0
-28 -80 0
12 28 80 0
c gate 81 -79 -80 0
-79 -81 0
-80 -81 0
79 80 81 0
c gate 82 -16 -32 0
-16 -82 0
-32 -82 0
16 32 82 0
c gate 83 16 32 0
16 -83 0
32 -83 0
-16 -32 83 0
c gate 84 -82 -83 0
-82 -84 0
-83 -84 0
82 83 84 0
c gate 85 -81 -84 0
-81 -85 0
-84 -85 0
81 84 85 0
c gate 86 -13 -29 0
-13 -86 0
-29 -86 0
13 29 86 0
c gate 87 13 29 0
13 -87 0
29 -87 0
-13 -29 87 0
c gate 88 -86 -87 0
-86 -88 0
-87 -88 0
86 87 88 0
c gate 89 -14 -30 0
-14 -89 0
-30 -89 0
14 30 89 0
c gate 90 14 30 0
14 -90 0
30 -90 0
-14 -30 90 0
c gate 91 -89 -90 0
-89 -91 0
-90 -91 0
89 90 91 0
c gate 92 15 -31 0
15 -92 0
-31 -92 0
-15 31 92 0
c gate 93 -15 31 0
-15 -93 0
31 -93 0
15 -31 93 0
c gate 94 -92 -93 0
-92 -94 0
-93 -94 0
92 93 94 0
c gate 95 -91 94 0
-91 -95 0
94 -95 0
91 -94 95 0
c gate 96 -88 95 0
-88 -96 0
95 -96 0
88 -95 96 0
c gate 97 85 96 0
85 -97 0
96 -97 0
-85 -96 97 0
c gate 98 78 97 0
78 -98 0
97 -98 0
-78 -97 98 0
c PO
98 0
